32      4       
17      18      20      14      
0       0       0       0       0       4       2       13      30      31      
10      1       1       5       1       2       3       29      
1       5       1       2       1       1       4       
8       1       8       14      1       2       5       18      
3       5       1       2       1       1       6       
3       1       1       6       7       1       7       
6       4       4       3       3       3       8       17      26      
5       9       1       1       1       1       9       
3       6       18      2       1       3       10      24      25      
4       4       9       1       1       1       11      
8       7       1       1       3       4       12      21      22      23      
5       6       1       1       7       2       14      20      
4       1       1       1       1       2       16      28      
6       1       6       1       6       1       15      
5       5       1       4       1       1       16      
6       5       12      1       7       1       19      
8       3       7       10      1       1       19      
2       1       1       4       5       1       27      
9       6       1       17      6       1       32      
10      5       1       1       11      1       32      
3       1       1       12      3       1       32      
3       5       13      1       8       1       32      
10      3       8       1       2       1       32      
3       7       5       17      6       1       32      
6       1       1       4       8       1       32      
9       3       1       10      4       1       32      
10      8       4       1       4       1       32      
10      11      14      12      2       1       32      
6       1       4       1       1       1       32      
7       8       1       13      1       1       32      
1       4       7       1       1       1       32      
0       0       0       0       0       0       
